p ocr 772 780 2103
1 773
2 773
3 774
4 773
4 774
6 774
6 775
7 774
7 775
8 774
8 776
8 777
9 774
9 777
10 775
10 776
11 778
11 780
12 776
12 777
12 778
12 779
12 780
12 781
14 779
14 780
14 781
14 782
14 783
14 784
14 785
14 786
15 783
15 784
15 786
15 787
16 786
16 787
17 787
17 788
17 789
18 787
18 788
18 789
19 788
19 791
20 788
20 789
20 790
20 791
20 792
21 791
21 792
21 793
21 794
22 790
22 791
22 793
22 794
23 793
23 794
23 795
23 796
24 793
24 794
24 795
24 796
25 795
25 796
25 797
26 795
26 797
26 798
26 799
27 796
27 797
27 798
27 799
28 798
28 799
28 801
29 800
29 803
29 804
29 805
30 802
30 803
30 805
31 804
31 805
31 806
32 805
32 806
33 805
33 807
33 808
34 806
34 807
34 809
34 810
35 809
35 810
36 810
36 811
36 812
37 810
37 811
37 812
38 811
38 812
38 813
39 812
39 813
39 814
40 812
40 813
40 814
40 815
40 816
41 814
41 815
41 816
41 817
41 818
42 816
42 817
42 818
42 819
43 817
44 818
44 819
44 820
45 818
45 819
45 820
45 821
46 820
47 819
47 820
47 821
47 823
47 824
48 825
48 828
49 826
49 827
49 828
50 826
50 828
51 829
52 828
53 828
53 829
53 830
54 828
54 829
54 830
54 831
54 832
55 831
56 831
57 831
57 832
58 834
60 833
60 834
60 835
61 833
61 834
61 835
61 836
62 834
62 837
63 835
63 836
63 838
64 836
64 837
64 838
64 839
65 836
65 838
65 839
65 840
66 838
66 839
66 840
66 841
67 842
67 843
68 839
68 842
69 841
69 842
69 843
69 844
69 845
69 846
70 845
70 846
70 847
70 848
71 845
71 850
72 846
72 847
72 849
72 850
73 848
73 849
73 851
73 852
73 853
73 854
74 853
74 854
74 855
74 857
75 855
75 857
75 859
76 857
76 860
77 857
77 858
77 859
78 858
78 859
78 860
78 861
78 863
79 859
79 861
79 862
79 863
79 865
80 864
80 865
80 866
81 867
82 865
82 867
83 865
83 867
85 867
85 868
85 870
86 867
86 868
86 869
86 870
86 871
87 869
87 870
87 872
87 873
88 870
88 871
88 873
88 874
89 872
89 873
89 874
90 874
90 875
91 873
91 874
91 877
92 874
92 875
92 877
93 877
93 878
94 876
94 879
95 876
95 877
95 878
95 879
96 878
96 880
97 878
97 879
97 880
98 879
98 880
99 880
99 881
100 881
101 880
101 882
102 882
103 882
103 883
103 886
103 887
104 882
104 884
104 885
104 886
105 885
105 888
106 888
106 889
106 890
107 888
107 890
107 891
108 889
108 891
108 892
109 890
109 891
109 892
109 893
110 893
111 892
111 893
111 894
112 893
112 894
112 895
113 893
113 894
114 895
114 896
115 894
115 895
115 896
116 895
116 896
116 897
117 896
117 897
118 896
118 897
119 897
119 898
120 898
121 897
121 899
122 898
123 898
123 899
124 898
124 899
124 900
125 898
125 900
126 899
126 900
127 900
127 901
128 900
128 901
128 902
129 900
129 902
130 901
130 902
131 901
131 902
131 903
131 904
131 905
132 902
132 903
132 904
132 906
132 907
132 908
133 906
133 907
133 909
134 908
134 909
134 910
135 908
135 909
136 910
136 911
137 910
138 910
138 911
138 912
138 913
139 912
139 913
139 914
140 913
140 914
141 913
141 914
141 915
142 914
143 914
143 915
143 917
143 918
144 916
144 918
144 919
145 917
145 918
145 919
145 921
145 922
146 923
146 925
146 926
146 927
147 926
147 927
147 928
147 929
148 927
149 927
149 928
149 930
150 929
150 930
151 928
151 930
152 929
152 930
152 931
153 931
153 932
154 931
155 931
155 932
155 934
156 931
156 932
156 934
156 935
156 936
157 935
157 936
157 937
157 938
157 939
157 940
157 941
158 940
158 941
158 942
158 943
159 939
159 940
159 942
159 943
160 942
160 943
160 944
160 945
161 943
161 944
161 945
161 947
162 943
162 945
163 945
163 946
163 947
163 949
163 950
163 951
164 948
164 949
164 950
164 951
164 952
164 953
165 952
165 953
165 955
166 953
166 954
166 955
166 956
167 955
167 957
168 955
168 956
168 957
169 956
169 957
169 958
169 959
169 960
170 959
171 958
171 959
171 960
172 959
172 960
172 961
172 962
172 963
172 964
173 962
173 963
173 964
173 965
173 966
173 967
174 966
174 967
175 967
176 966
176 968
177 966
177 968
178 967
178 968
179 969
180 968
180 969
180 970
180 971
181 969
181 970
181 972
182 973
183 971
183 972
184 971
184 972
185 972
185 973
185 974
186 972
186 974
186 975
187 972
187 974
188 974
188 975
188 977
189 974
189 975
189 977
189 978
189 979
190 978
190 979
190 981
190 982
191 978
191 982
192 979
193 981
193 982
193 983
193 984
194 981
194 982
194 984
194 985
195 983
196 985
196 986
196 987
197 987
198 986
198 987
198 988
199 987
199 988
199 990
200 987
200 988
200 989
200 990
200 991
201 990
202 991
203 991
203 992
204 991
204 992
205 992
206 992
207 992
208 992
208 993
209 992
209 993
210 992
210 993
211 994
212 993
212 994
212 996
213 993
213 994
213 995
213 997
214 994
214 995
214 996
214 997
214 998
214 999
215 997
215 1000
215 1001
216 998
216 999
217 1001
219 1001
219 1002
220 1002
220 1003
220 1005
221 1002
221 1003
221 1005
221 1006
221 1007
222 1004
222 1006
222 1007
222 1008
223 1007
223 1008
224 1006
224 1007
224 1008
225 1008
226 1008
226 1009
227 1008
227 1010
227 1011
227 1012
229 1011
229 1013
229 1014
230 1012
230 1013
230 1014
231 1014
232 1014
233 1014
233 1015
233 1016
234 1016
234 1018
235 1015
235 1016
235 1017
235 1018
236 1016
236 1018
237 1018
238 1018
239 1017
240 1018
240 1019
241 1019
242 1019
243 1019
244 1019
244 1020
244 1021
245 1019
245 1020
245 1021
246 1020
246 1022
247 1020
247 1021
247 1022
247 1023
248 1021
248 1022
249 1022
249 1023
249 1024
249 1025
250 1022
250 1023
250 1024
250 1025
250 1026
251 1026
252 1025
252 1026
252 1027
253 1025
253 1026
253 1027
253 1028
254 1027
254 1028
255 1027
255 1028
255 1029
255 1030
256 1027
256 1028
256 1029
256 1031
257 1029
257 1031
258 1029
258 1030
258 1031
258 1032
258 1033
258 1034
258 1035
259 1036
259 1037
259 1038
259 1039
259 1040
259 1041
260 1040
260 1041
260 1042
261 1041
261 1042
262 1040
262 1042
263 1042
263 1043
263 1045
264 1042
264 1043
264 1044
265 1043
265 1045
265 1046
265 1047
266 1043
266 1045
266 1046
266 1047
267 1046
267 1047
267 1048
267 1049
268 1047
268 1048
268 1049
268 1050
269 1048
269 1049
269 1050
269 1051
270 1049
270 1050
270 1051
270 1052
271 1050
271 1052
272 1051
272 1052
272 1054
273 1053
273 1054
273 1055
273 1057
274 1053
274 1054
274 1055
274 1056
274 1057
274 1058
276 1057
276 1058
276 1059
277 1057
277 1058
277 1059
278 1059
279 1059
279 1060
280 1059
280 1060
281 1059
281 1060
282 1061
283 1060
283 1061
283 1062
284 1060
284 1061
285 1061
285 1062
286 1061
286 1062
286 1063
286 1064
287 1061
287 1062
287 1064
287 1065
288 1064
288 1065
288 1066
289 1063
289 1066
290 1065
290 1066
291 1065
291 1066
291 1067
291 1068
292 1066
292 1067
292 1069
293 1067
293 1068
293 1069
293 1070
294 1070
294 1071
295 1069
295 1070
295 1071
295 1072
295 1073
296 1071
296 1072
296 1073
296 1074
296 1075
297 1074
297 1076
297 1078
298 1075
298 1076
298 1077
298 1079
298 1080
299 1078
299 1081
299 1082
299 1083
300 1079
300 1080
300 1082
300 1084
301 1082
301 1085
301 1086
301 1087
302 1084
302 1085
302 1087
302 1089
303 1086
303 1087
303 1088
303 1089
303 1090
304 1088
304 1090
304 1091
304 1093
305 1089
305 1090
305 1091
305 1092
305 1093
305 1094
306 1094
306 1096
307 1093
308 1093
308 1094
308 1095
308 1096
308 1097
309 1096
309 1097
309 1099
310 1097
310 1098
310 1099
311 1100
313 1099
313 1100
313 1102
314 1100
315 1100
315 1101
315 1103
315 1104
316 1101
316 1102
316 1103
317 1103
318 1103
318 1104
318 1105
319 1103
319 1104
319 1105
319 1106
319 1107
320 1105
320 1107
320 1108
321 1106
321 1107
321 1109
321 1110
322 1108
322 1110
323 1108
323 1109
323 1110
323 1112
324 1111
324 1112
324 1113
324 1114
325 1110
325 1111
325 1113
325 1114
326 1113
326 1114
326 1115
326 1116
327 1114
328 1115
328 1116
328 1117
329 1115
330 1116
330 1117
331 1117
331 1118
332 1118
333 1117
333 1118
334 1117
334 1118
335 1118
336 1118
338 1120
339 1119
339 1120
340 1119
341 1119
341 1120
341 1121
341 1122
342 1119
342 1120
342 1121
342 1122
343 1121
343 1122
343 1124
344 1122
344 1123
344 1124
344 1125
345 1124
345 1125
345 1126
345 1127
345 1128
345 1129
345 1130
346 1129
346 1130
346 1131
346 1132
346 1133
346 1134
347 1131
347 1132
347 1134
347 1135
348 1133
348 1134
348 1136
348 1137
349 1134
349 1136
349 1137
349 1138
350 1136
350 1137
350 1138
350 1139
351 1137
351 1139
352 1138
352 1139
352 1140
353 1140
353 1141
354 1140
354 1141
355 1139
355 1140
355 1141
355 1142
356 1141
356 1142
356 1143
357 1141
357 1142
357 1144
357 1146
358 1142
358 1143
358 1144
358 1146
358 1147
358 1148
359 1146
359 1147
361 1148
362 1149
362 1150
363 1150
364 1150
365 1150
366 1150
367 1150
368 1150
369 1150
371 1151
372 1152
373 1152
373 1153
374 1152
374 1154
375 1152
375 1153
375 1154
375 1155
376 1153
376 1155
376 1156
376 1157
377 1159
378 1158
378 1160
379 1159
379 1161
380 1161
381 1161
381 1162
382 1161
382 1162
382 1163
383 1162
383 1163
383 1164
383 1165
384 1165
384 1166
385 1163
385 1164
385 1166
385 1167
386 1164
386 1166
387 1166
387 1167
388 1167
390 1167
390 1168
391 1168
392 1168
392 1169
393 1168
393 1169
393 1170
394 1168
394 1169
394 1170
394 1171
395 1170
395 1171
396 1170
396 1171
396 1172
397 1172
397 1173
398 1172
398 1173
399 1172
399 1173
399 1175
400 1175
400 1176
400 1177
401 1175
401 1176
401 1177
401 1178
401 1179
401 1180
401 1181
402 1184
402 1185
402 1186
403 1185
403 1189
405 1188
405 1189
405 1190
406 1189
406 1190
407 1189
407 1191
408 1191
409 1190
409 1193
409 1194
410 1195
410 1196
410 1197
410 1198
410 1199
411 1196
411 1198
411 1199
411 1201
412 1198
412 1199
412 1200
412 1202
412 1203
413 1202
413 1203
413 1206
414 1204
414 1205
414 1206
414 1207
415 1206
415 1207
415 1209
416 1207
416 1208
416 1210
417 1207
417 1208
417 1209
417 1210
418 1209
418 1210
418 1211
418 1212
418 1213
418 1214
419 1211
419 1213
419 1214
419 1215
420 1212
420 1214
420 1215
420 1216
421 1214
421 1215
421 1216
421 1217
422 1215
422 1216
422 1217
422 1218
422 1219
423 1217
423 1219
424 1217
424 1219
424 1220
425 1218
425 1219
425 1221
426 1221
426 1223
427 1220
427 1222
427 1223
427 1224
428 1221
428 1224
429 1224
429 1225
430 1224
430 1225
431 1224
431 1225
432 1225
432 1226
433 1225
433 1226
433 1227
433 1228
434 1226
434 1227
434 1228
435 1227
435 1228
436 1227
436 1228
436 1229
438 1230
439 1230
439 1231
440 1229
440 1230
440 1231
440 1232
440 1233
440 1234
440 1235
441 1232
441 1233
441 1234
441 1237
442 1235
442 1237
442 1238
443 1237
443 1238
444 1237
444 1238
444 1240
445 1238
445 1239
445 1240
446 1238
446 1240
446 1241
447 1239
447 1241
447 1242
448 1240
448 1241
448 1242
449 1241
449 1242
449 1243
450 1242
450 1244
451 1242
451 1245
452 1242
452 1243
452 1245
452 1246
453 1244
453 1245
453 1246
453 1247
453 1248
454 1246
454 1247
454 1249
455 1247
455 1249
455 1250
456 1248
456 1249
457 1250
458 1250
459 1250
459 1251
460 1250
460 1251
460 1252
460 1253
461 1251
461 1254
461 1255
462 1253
462 1256
462 1257
463 1255
463 1256
463 1257
464 1258
465 1257
465 1258
466 1259
467 1260
468 1258
468 1260
468 1261
469 1260
469 1261
469 1262
469 1263
470 1259
470 1261
470 1263
471 1262
471 1263
472 1263
472 1264
473 1262
473 1263
474 1264
475 1263
475 1264
475 1265
476 1264
477 1264
477 1265
477 1266
477 1267
478 1265
478 1266
478 1267
478 1269
478 1270
479 1270
479 1272
479 1273
479 1274
479 1275
479 1276
479 1277
480 1277
480 1279
480 1280
480 1281
481 1278
481 1279
482 1280
482 1281
482 1282
482 1283
483 1281
483 1284
484 1281
484 1283
484 1284
485 1284
485 1285
486 1283
486 1284
486 1285
486 1286
487 1284
487 1286
488 1285
488 1288
488 1289
489 1286
489 1287
489 1288
489 1289
489 1290
489 1291
489 1292
489 1293
490 1290
490 1292
490 1293
490 1294
490 1295
491 1293
491 1294
491 1295
491 1296
491 1297
491 1298
492 1294
492 1296
492 1298
492 1299
493 1297
493 1298
493 1300
493 1301
493 1302
494 1299
494 1301
494 1302
494 1303
494 1304
495 1302
495 1303
495 1304
495 1305
496 1303
496 1305
497 1304
497 1305
497 1306
498 1304
498 1305
498 1306
498 1307
499 1306
499 1307
499 1309
500 1306
500 1307
500 1308
500 1310
501 1308
501 1309
501 1310
501 1311
502 1308
502 1310
502 1312
502 1313
503 1310
503 1311
503 1312
503 1313
504 1313
504 1314
505 1312
505 1313
505 1315
506 1313
506 1315
507 1315
508 1314
508 1317
509 1315
509 1316
509 1317
509 1318
510 1317
510 1318
510 1321
510 1322
511 1319
511 1320
511 1321
511 1322
512 1321
512 1323
513 1321
513 1322
513 1323
514 1322
514 1323
514 1324
515 1323
515 1325
516 1323
516 1324
516 1325
517 1324
517 1326
518 1324
518 1325
518 1326
519 1325
519 1326
520 1326
522 1326
523 1327
523 1328
524 1327
524 1329
525 1327
525 1329
526 1328
526 1329
526 1330
527 1328
527 1330
527 1331
528 1329
528 1330
528 1331
528 1332
529 1330
529 1331
529 1332
530 1332
530 1333
531 1331
531 1332
531 1333
532 1332
532 1333
532 1334
533 1333
533 1334
534 1333
534 1334
535 1333
535 1334
535 1335
535 1337
536 1334
536 1335
536 1337
537 1336
537 1337
537 1338
538 1337
539 1337
539 1339
540 1338
540 1340
541 1338
541 1340
541 1342
542 1340
542 1342
542 1343
542 1344
542 1345
542 1346
543 1343
543 1345
543 1346
543 1347
544 1344
544 1347
545 1347
545 1348
546 1346
546 1347
546 1348
546 1349
547 1347
547 1348
548 1348
548 1349
548 1350
548 1351
549 1349
549 1350
549 1351
550 1350
550 1351
550 1352
550 1353
551 1350
551 1351
551 1352
551 1353
552 1352
552 1354
553 1352
553 1353
553 1354
554 1353
554 1354
554 1357
555 1354
555 1355
555 1357
555 1358
556 1356
556 1357
557 1359
557 1361
558 1359
558 1360
558 1361
559 1360
559 1361
559 1362
560 1361
560 1362
561 1361
561 1362
561 1363
562 1363
562 1364
563 1362
563 1363
564 1363
564 1364
565 1364
565 1365
565 1366
566 1364
566 1365
566 1366
567 1366
568 1365
568 1366
568 1369
569 1366
569 1367
569 1369
569 1370
570 1368
570 1369
570 1370
570 1372
570 1373
571 1372
571 1374
572 1371
572 1373
573 1372
573 1373
573 1374
574 1374
574 1375
575 1373
575 1374
575 1375
575 1376
576 1374
577 1376
578 1375
578 1376
578 1377
578 1378
579 1375
579 1376
579 1378
580 1377
580 1378
582 1378
582 1379
583 1378
583 1379
583 1380
584 1379
586 1379
586 1380
586 1381
587 1380
587 1381
588 1380
588 1381
588 1382
588 1384
589 1381
589 1382
589 1385
590 1383
590 1384
590 1386
591 1383
591 1386
592 1385
592 1386
592 1388
593 1386
593 1390
594 1386
594 1387
594 1388
594 1390
595 1388
595 1389
595 1390
595 1391
595 1392
596 1391
596 1392
596 1393
597 1391
597 1393
597 1394
598 1392
598 1393
598 1395
599 1393
599 1394
599 1396
600 1394
600 1396
600 1397
601 1394
601 1395
601 1397
602 1397
602 1398
603 1397
603 1398
604 1397
604 1398
605 1397
605 1398
606 1398
606 1399
607 1398
607 1399
608 1398
608 1399
609 1398
609 1399
610 1400
611 1399
611 1400
612 1399
612 1400
613 1400
613 1402
614 1400
614 1402
615 1400
615 1401
615 1402
616 1401
616 1402
616 1403
617 1402
617 1403
617 1404
618 1403
618 1404
619 1403
619 1404
619 1405
620 1404
620 1406
621 1404
621 1406
621 1407
622 1405
622 1406
622 1408
622 1409
623 1406
623 1408
623 1410
624 1407
624 1409
624 1410
625 1409
625 1410
626 1409
626 1410
626 1411
627 1410
627 1411
628 1410
628 1411
629 1411
629 1413
630 1411
630 1412
630 1413
631 1411
631 1412
632 1412
632 1413
632 1415
632 1416
633 1413
633 1414
633 1415
633 1416
634 1416
634 1419
635 1415
635 1417
635 1418
635 1419
636 1417
636 1418
636 1419
636 1421
637 1419
637 1420
637 1421
637 1422
637 1423
637 1424
638 1422
638 1424
639 1423
640 1423
640 1426
641 1424
641 1427
642 1424
642 1425
642 1426
643 1427
643 1428
644 1425
644 1426
644 1428
645 1427
645 1428
645 1429
645 1430
645 1431
646 1428
646 1431
647 1429
647 1430
647 1432
647 1433
647 1434
647 1435
648 1434
648 1435
648 1436
648 1437
648 1438
648 1440
649 1439
649 1440
649 1441
649 1442
650 1439
650 1440
650 1442
650 1443
651 1441
651 1442
651 1443
651 1444
652 1444
652 1446
653 1443
653 1445
654 1443
654 1444
654 1445
654 1446
655 1445
655 1446
655 1447
656 1445
656 1446
656 1447
657 1447
657 1448
658 1447
658 1448
658 1449
659 1447
659 1450
660 1449
660 1451
661 1448
661 1449
661 1450
661 1452
662 1451
662 1452
663 1452
664 1452
665 1452
665 1453
666 1452
666 1453
667 1453
668 1453
669 1453
669 1454
670 1453
670 1454
670 1456
671 1453
671 1454
671 1456
671 1457
671 1458
672 1456
672 1459
672 1460
673 1458
673 1459
673 1460
674 1460
674 1461
675 1460
675 1461
676 1460
676 1461
677 1461
677 1462
677 1463
678 1461
678 1462
678 1463
679 1462
679 1463
681 1462
681 1463
681 1464
682 1463
682 1464
682 1465
683 1463
684 1464
685 1464
685 1465
685 1466
685 1467
685 1468
685 1469
686 1467
686 1468
686 1469
686 1472
687 1468
687 1470
687 1471
687 1472
688 1470
688 1471
688 1472
688 1473
689 1472
689 1473
689 1474
689 1475
690 1473
691 1473
691 1474
691 1475
692 1474
692 1475
692 1476
692 1477
692 1478
693 1475
693 1478
694 1480
694 1481
694 1482
694 1484
694 1485
694 1486
694 1487
695 1485
695 1487
695 1488
696 1487
696 1488
697 1487
697 1488
698 1488
698 1489
699 1488
699 1489
700 1488
700 1489
701 1489
701 1490
701 1491
702 1489
702 1490
702 1491
703 1490
703 1491
703 1492
703 1494
703 1495
703 1496
704 1494
704 1496
705 1494
706 1495
706 1497
707 1496
707 1497
708 1496
708 1497
709 1497
710 1497
711 1497
711 1498
712 1497
712 1498
713 1497
713 1498
714 1500
715 1498
715 1499
715 1500
715 1502
716 1502
717 1503
717 1506
718 1505
718 1507
719 1505
719 1506
719 1507
720 1506
720 1507
720 1508
721 1507
721 1508
721 1509
721 1510
721 1511
722 1508
722 1510
722 1511
722 1512
723 1510
723 1512
724 1511
724 1514
725 1511
725 1514
726 1512
726 1513
726 1515
726 1517
727 1518
727 1520
728 1517
728 1518
728 1519
728 1520
728 1521
729 1520
729 1521
729 1522
730 1521
730 1522
730 1523
731 1520
731 1522
732 1522
732 1523
733 1522
733 1523
733 1524
733 1525
733 1526
733 1527
734 1524
734 1525
734 1526
734 1527
734 1528
735 1529
735 1530
736 1528
736 1529
736 1530
736 1531
737 1529
737 1530
737 1531
738 1530
738 1531
738 1532
739 1531
739 1532
740 1531
741 1531
741 1533
742 1532
742 1533
743 1532
743 1534
744 1533
745 1534
745 1535
746 1533
746 1535
747 1534
747 1535
748 1534
748 1538
749 1536
749 1538
749 1539
749 1540
750 1540
751 1539
751 1540
751 1542
751 1543
752 1541
752 1543
753 1542
753 1543
753 1545
753 1546
753 1547
754 1544
754 1546
754 1547
754 1549
755 1546
755 1547
755 1548
755 1549
755 1550
756 1548
756 1549
756 1550
756 1551
756 1552
757 1552
758 1552
759 1551
759 1552